
List of user-set options:

                                    Name   Value                used
                           compl_inf_tol = 1                     yes
                         constr_viol_tol = 1                     yes
                            dual_inf_tol = 1000                  yes
                           linear_solver = ma97                  yes
                              ma86_small = 1e-30                  no
                                  ma86_u = 0.0001                 no
                              ma97_order = best                  yes
                              ma97_small = 1e-30                 yes
                            ma97_switch1 = at_start              yes
                            ma97_switch2 = od_hd_reuse           yes
                                  ma97_u = 1e-06                 yes
                               ma97_umax = 0.5                   yes
                                max_iter = 1000                  yes
                    max_refinement_steps = 20                    yes
                    min_refinement_steps = 5                     yes
                                 mu_init = 1e-06                 yes
           mu_superlinear_decrease_power = 1.25                  yes
                   nlp_scaling_min_value = 1e-08                 yes
                        option_file_name = Preset_Case:_732_NCP.opt  yes
                             output_file = ./tmp/Preset_Case:_732_NCP.output  yes
                      print_user_options = yes                   yes
        required_infeasibility_reduction = 1                      no
                                     tol = 1e-08                 yes
                   warm_start_bound_frac = 1e-20                 yes
                   warm_start_bound_push = 1e-20                 yes
                   warm_start_init_point = yes                   yes
              warm_start_mult_bound_push = 1e-20                 yes
                warm_start_mult_init_max = 1e+40                 yes
             warm_start_slack_bound_frac = 1e-20                 yes
             warm_start_slack_bound_push = 1e-20                 yes

******************************************************************************
This program contains Ipopt, a library for large-scale nonlinear optimization.
 Ipopt is released as open source code under the Eclipse Public License (EPL).
         For more information visit http://projects.coin-or.org/Ipopt
******************************************************************************

This is Ipopt version 3.12.10, running with linear solver ma97.

Number of nonzeros in equality constraint Jacobian...:   117167
Number of nonzeros in inequality constraint Jacobian.:      213
Number of nonzeros in Lagrangian Hessian.............:    47513

Total number of variables............................:    29977
                     variables with only lower bounds:    11312
                variables with lower and upper bounds:    15135
                     variables with only upper bounds:        0
Total number of equality constraints.................:    29864
Total number of inequality constraints...............:       25
        inequality constraints with only lower bounds:        4
   inequality constraints with lower and upper bounds:        0
        inequality constraints with only upper bounds:       21

iter    objective    inf_pr   inf_du lg(mu)  ||d||  lg(rg) alpha_du alpha_pr  ls
   0 -1.6079925e-01 2.03e-01 2.00e+00  -6.0 0.00e+00    -  0.00e+00 0.00e+00   0
In iteration 0, 8 Slacks too small, adjusting variable bounds
   1 -1.6079925e-01 2.03e-01 2.29e+02  -6.0 1.04e+10    -  2.28e-14 6.39e-19h  1
   2 -1.6079831e-01 2.03e-01 6.31e+02  -6.0 2.32e+02    -  1.00e-02 1.59e-05f  1
   3 -1.6079448e-01 2.03e-01 6.30e+02  -6.0 2.24e+02    -  1.48e-02 6.68e-05h  1
   4 -1.6007773e-01 2.01e-01 6.22e+02  -6.0 2.20e+02    -  4.83e-03 1.31e-02h  2
   5 -1.5905348e-01 1.97e-01 6.13e+02  -6.0 2.33e+02    -  3.02e-03 1.70e-02h  2
   6 -1.5796582e-01 1.93e-01 6.01e+02  -6.0 1.88e+02    -  2.39e-02 1.97e-02h  2
   7 -1.5693788e-01 1.90e-01 5.89e+02  -6.0 1.88e+02    -  2.06e-02 1.91e-02h  3
   8 -1.5591301e-01 1.86e-01 5.70e+02  -6.0 1.83e+02    -  7.97e-02 1.98e-02h  3
   9 -1.5487745e-01 1.82e-01 5.49e+02  -6.0 1.82e+02    -  9.12e-02 2.06e-02h  3
iter    objective    inf_pr   inf_du lg(mu)  ||d||  lg(rg) alpha_du alpha_pr  ls
  10 -1.5376148e-01 1.78e-01 5.20e+02  -6.0 1.83e+02    -  1.48e-01 2.28e-02h  3
  11 -1.5225635e-01 1.72e-01 4.89e+02  -6.0 1.87e+02    -  1.42e-01 3.10e-02h  3
  12 -1.5136789e-01 1.69e-01 4.57e+02  -6.0 1.92e+02    -  1.95e-01 1.86e-02h  4
  13 -1.4971298e-01 1.63e-01 4.24e+02  -6.0 2.05e+02    -  1.88e-01 3.37e-02h  3
  14 -1.4376612e-01 1.48e-01 3.64e+02  -6.0 2.15e+02    -  2.14e-01 1.21e-01w  1
  15 -1.4375277e-01 1.48e-01 1.75e+05  -6.0 1.65e+02    -  2.74e-01 3.78e-04w  1
  16 -1.2915743e-01 1.14e+00 8.16e+04  -6.0 1.98e+02    -  3.14e-01 3.79e-01w  1
  17 -1.4822626e-01 1.59e-01 4.13e+02  -6.0 1.66e+02    -  2.14e-01 3.04e-02h  2
  18 -1.4686938e-01 1.54e-01 4.67e+02  -6.0 2.27e+02    -  2.35e-01 2.75e-02h  3
  19 -1.4559757e-01 1.50e-01 1.01e+03  -6.0 2.41e+02    -  2.97e-01 2.55e-02h  3
iter    objective    inf_pr   inf_du lg(mu)  ||d||  lg(rg) alpha_du alpha_pr  ls
  20 -1.4431351e-01 1.46e-01 4.20e+03  -6.0 2.62e+02    -  3.42e-01 2.52e-02h  3
  21 -1.4277729e-01 1.42e-01 1.83e+04  -6.0 2.96e+02    -  4.49e-01 2.99e-02h  3
  22 -1.4230894e-01 1.41e-01 2.91e+04  -6.0 3.73e+02    -  1.68e-01 9.55e-03h  4
  23 -1.4230198e-01 1.41e-01 3.06e+04  -6.0 3.45e+02    -  3.29e-02 2.51e-04h  8
  24 -1.4134152e-01 1.37e-01 3.39e+04  -6.0 1.01e+02  -4.0 1.06e-01 2.36e-02h  3
  25 -1.4124205e-01 1.37e-01 3.44e+04  -6.0 4.12e+02  -4.5 9.84e-03 3.62e-03h  4
  26 -1.4062418e-01 1.35e-01 4.27e+04  -6.0 1.03e+02  -4.1 1.43e-01 1.52e-02h  3
  27 -1.4108765e-01 3.66e-01 4.23e+04  -6.0 2.77e+03  -4.5 2.18e-03 5.72e-03w  1
  28 -1.2796824e-01 1.24e+00 2.46e+04  -6.0 1.03e+02  -4.1 2.96e-01 3.35e-01w  1
  29 -1.2740530e-01 1.23e+00 1.17e+05  -6.0 1.06e+02  -4.6 3.19e-01 1.99e-02w  1
iter    objective    inf_pr   inf_du lg(mu)  ||d||  lg(rg) alpha_du alpha_pr  ls
  30 -1.4065315e-01 1.35e-01 4.27e+04  -6.0 5.94e+01  -4.2 2.18e-03 3.57e-04h  4
  31 -1.4067020e-01 1.35e-01 4.32e+04  -6.0 1.91e+03  -4.6 6.14e-03 4.92e-04h  5
  32 -1.4041913e-01 1.34e-01 5.77e+04  -6.0 1.17e+02  -4.2 1.42e-01 6.25e-03h  4
  33 -1.3967109e-01 1.31e-01 6.66e+04  -6.0 7.33e+01  -3.8 3.11e-01 1.95e-02h  3
  34 -1.3965119e-01 1.31e-01 7.70e+04  -6.0 1.78e+02  -4.3 7.00e-02 6.32e-04h  9
  35 -1.3847385e-01 1.27e-01 1.15e+05  -6.0 7.87e+01  -3.8 5.14e-01 2.96e-02h  4
  36 -1.3758543e-01 1.24e-01 7.99e+04  -6.0 6.37e+01  -3.4 4.25e-01 2.46e-02h  4
  37 -1.3670987e-01 1.22e-01 1.40e+05  -6.0 8.78e+01  -3.9 3.59e-01 2.04e-02h  5
  38 -1.3600163e-01 1.19e-01 1.31e+05  -6.0 6.92e+01  -3.5 5.41e-01 1.84e-02h  5
  39 -1.3581343e-01 1.19e-01 1.55e+05  -6.0 1.40e+02  -3.9 9.73e-02 4.14e-03h  7
iter    objective    inf_pr   inf_du lg(mu)  ||d||  lg(rg) alpha_du alpha_pr  ls
  40 -1.2021241e-01 1.51e+00 1.13e+05  -6.0 7.49e+01  -3.5 6.16e-01 3.80e-01w  1
  41 -1.1827373e-01 1.41e+00 3.29e+04  -6.0 2.85e+01  -3.1 4.04e-01 8.77e-02w  1
  42 -1.0465802e-01 2.20e+00 1.40e+05  -6.0 4.41e+01  -3.6 9.19e-03 3.95e-01w  1
  43 -1.3483837e-01 1.16e-01 1.92e+05  -6.0 3.06e+01  -3.1 6.16e-01 2.38e-02h  4
  44 -1.3419898e-01 1.14e-01 2.79e+05  -6.0 7.88e+01  -3.6 5.68e-01 1.48e-02h  6
  45 -1.3323782e-01 1.11e-01 1.54e+05  -6.0 6.30e+01  -3.2 5.38e-01 2.60e-02h  4
  46 -1.3266397e-01 1.10e-01 3.35e+05  -6.0 8.21e+01  -3.7 6.50e-01 1.25e-02h  6
  47 -1.3207180e-01 1.08e-01 2.32e+05  -6.0 6.47e+01  -3.2 6.09e-01 1.54e-02h  5
  48 -1.3141951e-01 1.07e-01 3.49e+05  -6.0 8.18e+01  -3.7 3.56e-01 1.38e-02h  6
  49 -1.3046664e-01 1.04e-01 2.97e+05  -6.0 6.73e+01  -3.3 9.47e-01 2.37e-02h  5
iter    objective    inf_pr   inf_du lg(mu)  ||d||  lg(rg) alpha_du alpha_pr  ls
  50 -1.2977920e-01 1.03e-01 4.08e+05  -6.0 8.42e+01  -3.8 2.84e-01 1.42e-02h  6
  51 -1.2902968e-01 1.01e-01 4.55e+05  -6.0 6.80e+01  -3.3 9.98e-01 1.80e-02h  6
  52 -1.2824066e-01 9.86e-02 2.41e+05  -6.0 5.51e+01  -2.9 4.29e-01 2.31e-02h  4
  53 -1.0694450e-01 2.86e+00 2.19e+05  -6.0 7.17e+01  -3.4 7.30e-01 4.74e-01w  1
  54 -1.0649146e-01 2.80e+00 3.23e+05  -6.0 2.78e+01  -3.0 3.16e-01 2.10e-02w  1
  55 -1.0438446e-01 2.39e+00 5.68e+04  -6.0 1.99e+01  -2.5 3.80e-01 1.58e-01w  1
  56 -1.2757515e-01 9.71e-02 4.90e+05  -6.0 5.42e+01  -3.0 7.30e-01 1.48e-02h  5
  57 -1.2689619e-01 9.56e-02 5.99e+05  -6.0 7.07e+01  -3.5 3.78e-01 1.51e-02h  6
  58 -1.2583246e-01 9.28e-02 4.16e+05  -6.0 5.64e+01  -3.1 5.77e-01 2.93e-02h  4
  59 -1.2484871e-01 9.08e-02 6.43e+05  -6.0 7.65e+01  -3.5 4.79e-01 2.17e-02h  5
iter    objective    inf_pr   inf_du lg(mu)  ||d||  lg(rg) alpha_du alpha_pr  ls
  60 -1.2416834e-01 8.91e-02 4.66e+05  -6.0 5.42e+01  -3.1 1.00e+00 1.86e-02h  5
  61 -1.2399436e-01 8.87e-02 5.82e+05  -6.0 1.72e+02  -3.6 2.21e-01 4.28e-03h  5
  62 -1.2292102e-01 8.63e-02 6.20e+05  -6.0 5.65e+01  -3.2 5.05e-01 2.76e-02h  5
  63 -1.2171895e-01 8.28e-02 1.93e+05  -6.0 4.37e+01  -2.7 5.68e-01 4.06e-02h  3
  64 -1.2076139e-01 8.47e-02 4.83e+05  -6.0 6.38e+01  -3.2 5.79e-01 2.32e-02h  5
  65 -1.1996756e-01 8.65e-02 1.69e+05  -6.0 4.33e+01  -2.8 9.05e-01 2.57e-02h  4
  66 -1.1268761e-01 1.27e+00 4.23e+05  -6.0 6.87e+01  -3.3 5.55e-01 1.74e-01w  1
  67 -1.0486517e-01 1.17e+00 1.15e+06  -6.0 6.80e+01  -3.7 6.62e-01 1.92e-01w  1
  68 -1.0317848e-01 1.12e+00 9.58e+05  -6.0 3.49e+01  -3.3 8.05e-01 6.28e-02w  1
  69 -1.1951257e-01 8.59e-02 5.72e+05  -6.0 1.05e+02  -3.8 5.55e-01 1.09e-02h  4
iter    objective    inf_pr   inf_du lg(mu)  ||d||  lg(rg) alpha_du alpha_pr  ls
  70 -1.1938398e-01 8.53e-02 8.35e+05  -6.0 1.78e+02  -3.4 4.06e-01 3.53e-03h  5
  71 -1.1843196e-01 8.79e-02 5.15e+05  -6.0 4.30e+01  -2.9 1.00e+00 2.97e-02h  4
  72 -1.1753510e-01 8.99e-02 1.90e+05  -6.0 3.46e+01  -2.5 8.05e-01 3.54e-02h  3
  73 -1.1637871e-01 9.16e-02 1.85e+05  -6.0 5.86e+01  -3.0 3.45e-01 3.00e-02h  4
  74 -1.1544334e-01 9.34e-02 1.79e+05  -6.0 3.74e+01  -2.6 8.61e-01 3.34e-02h  4
  75 -1.1493793e-01 9.16e-02 1.76e+05  -6.0 7.71e+01  -3.0 7.39e-01 1.31e-02h  4
  76 -1.1399135e-01 9.27e-02 1.70e+05  -6.0 3.55e+01  -2.6 6.13e-01 3.54e-02h  3
  77 -1.1381898e-01 9.22e-02 1.69e+05  -6.0 9.44e+01  -3.1 9.06e-01 4.61e-03h  5
  78 -1.1316443e-01 9.67e-02 1.67e+05  -6.0 9.65e+01  -3.6 2.37e-01 1.18e-02h  4
  79 -1.0527925e-01 6.20e-01 1.30e+05  -6.0 4.79e+01  -3.1 4.85e-01 2.20e-01w  1
iter    objective    inf_pr   inf_du lg(mu)  ||d||  lg(rg) alpha_du alpha_pr  ls
  80 -1.0235236e-01 7.52e-01 1.06e+06  -6.0 1.30e+02  -3.6 5.25e-01 6.44e-02w  1
  81 -9.6221138e-02 8.10e-01 1.66e+06  -6.0 3.70e+01  -3.2 8.69e-01 2.77e-01w  1
  82 -1.1267161e-01 9.75e-02 1.64e+05  -6.0 3.50e+01  -3.7 4.85e-01 1.38e-02h  4
  83 -1.1216896e-01 9.88e-02 1.61e+05  -6.0 5.61e+01  -3.3 1.00e+00 1.24e-02h  5
  84 -1.1205018e-01 9.90e-02 1.50e+05  -6.0 1.71e+02  -3.7 3.36e-01 2.08e-03h  6
  85 -1.1160995e-01 1.00e-01 1.27e+05  -6.0 5.60e+01  -3.3 1.00e+00 1.25e-02h  5
  86 -1.1156820e-01 1.00e-01 1.21e+05  -6.0 3.25e+02  -3.8 1.11e-01 8.09e-04h  7
  87 -1.1116923e-01 1.01e-01 1.62e+05  -6.0 6.66e+01  -3.4 3.45e-01 1.22e-02h  5
  88 -1.1029202e-01 1.04e-01 2.32e+05  -6.0 4.25e+01  -2.9 1.00e+00 3.63e-02h  3
  89 -1.0990692e-01 1.06e-01 6.12e+05  -6.0 9.16e+01  -3.4 2.74e-01 1.18e-02h  5
iter    objective    inf_pr   inf_du lg(mu)  ||d||  lg(rg) alpha_du alpha_pr  ls
  90 -1.0938650e-01 1.06e-01 1.37e+06  -6.0 5.57e+01  -3.0 1.00e+00 2.00e-02h  5
  91 -1.0910036e-01 1.07e-01 1.96e+06  -6.0 1.17e+02  -3.5 2.80e-01 1.06e-02h  5
  92 -1.0330550e-01 4.81e-01 2.41e+06  -6.0 6.70e+01  -3.0 1.00e+00 2.38e-01w  1
  93 -1.0186352e-01 6.01e-01 2.44e+06  -6.0 1.25e+02  -3.5 3.56e-01 7.95e-02w  1
  94 -1.0150119e-01 5.85e-01 4.82e+06  -6.0 4.49e+01  -3.1 1.00e+00 2.61e-02w  1
  95 -1.0837600e-01 1.10e-01 3.07e+06  -6.0 9.11e+01  -3.6 1.00e+00 2.97e-02h  3
  96 -1.0766666e-01 1.14e-01 3.54e+06  -6.0 8.55e+01  -3.1 3.93e-01 3.08e-02h  4
  97 -1.0753640e-01 1.15e-01 3.57e+06  -6.0 1.51e+02  -3.6 3.23e-01 6.24e-03h  5
  98 -1.0690086e-01 1.15e-01 3.82e+06  -6.0 8.24e+01  -3.2 6.50e-01 3.18e-02h  4
  99 -1.0627800e-01 9.84e-02 3.50e+06  -6.0 1.60e+02  -3.7 4.46e-01 3.48e-02h  3
iter    objective    inf_pr   inf_du lg(mu)  ||d||  lg(rg) alpha_du alpha_pr  ls
 100 -1.0526429e-01 9.49e-02 3.19e+06  -6.0 7.62e+01  -3.2 6.62e-01 6.10e-02h  3
 101 -1.0492914e-01 9.27e-02 2.80e+06  -6.0 1.56e+02  -3.7 7.02e-01 2.51e-02h  5
 102 -1.0396651e-01 8.99e-02 2.21e+06  -6.0 6.31e+01  -3.3 6.08e-01 7.00e-02h  3
 103 -1.0376046e-01 8.83e-02 2.09e+06  -6.0 1.35e+02  -3.8 7.44e-01 1.63e-02h  6
 104 -1.0295272e-01 8.46e-02 2.21e+06  -6.0 5.22e+01  -3.3 6.75e-01 6.56e-02h  4
 105 -9.8407131e-02 1.44e-01 3.73e+06  -6.0 2.95e+01  -2.9 1.00e+00 3.96e-01w  1
 106 -9.3548847e-02 2.01e+00 9.71e+05  -6.0 3.52e+01  -3.4 9.63e-01 7.55e-01w  1
 107 -9.2474447e-02 5.28e-01 2.23e+06  -6.0 1.04e+01  -3.0 5.43e-01 1.00e+00w  1
 108 -1.0181632e-01 8.17e-02 5.56e+06  -6.0 7.90e+00  -3.4 1.00e+00 9.89e-02h  2
 109 -9.4862118e-02 1.15e-01 7.53e+05  -6.0 3.52e+01  -3.0 4.53e-01 7.44e-01H  1
iter    objective    inf_pr   inf_du lg(mu)  ||d||  lg(rg) alpha_du alpha_pr  ls
 110 -9.4803901e-02 1.13e-01 2.02e+06  -6.0 2.51e+01  -3.5 3.89e-01 2.26e-02h  6
 111 -9.4018956e-02 1.27e-01 2.12e+06  -6.0 1.48e+01  -3.1 6.89e-01 4.79e-01H  1
 112 -9.3947903e-02 1.28e-01 5.94e+06  -6.0 2.87e+01  -3.5 4.54e-01 2.27e-02h  5
 113 -9.2871774e-02 1.22e-01 1.91e+06  -6.0 9.99e+00  -3.1 5.67e-01 5.94e-01H  1
 114r-9.2871774e-02 1.22e-01 1.00e+03  -1.3 0.00e+00  -2.7 0.00e+00 2.70e-07R  2
 115r-9.2778062e-02 1.17e-01 1.00e+03  -1.3 5.96e+03    -  5.86e-05 4.66e-05f  1
 116 -9.2705291e-02 1.05e-01 6.07e+07  -6.0 5.86e+00    -  7.11e-01 9.77e-02h  1
 117 -9.2160338e-02 3.39e-02 4.40e+08  -6.0 1.16e+01    -  9.78e-02 6.82e-01h  1
 118 -9.2049180e-02 1.06e-03 1.27e+02  -6.0 5.12e+00    -  8.39e-01 1.00e+00h  1
 119 -9.2692459e-02 1.16e-03 2.28e+01  -6.0 3.38e+00    -  7.72e-01 1.00e+00h  1
iter    objective    inf_pr   inf_du lg(mu)  ||d||  lg(rg) alpha_du alpha_pr  ls
 120 -9.5690498e-02 1.79e-02 6.38e+00  -6.0 1.44e+01    -  7.20e-01 1.00e+00h  1
 121 -1.0254782e-01 4.27e-02 3.39e+01  -6.0 7.48e+01    -  3.59e-01 6.83e-01H  1
 122 -1.1582435e-01 4.16e-02 2.38e+01  -6.0 1.17e+02    -  6.92e-01 1.00e+00H  1
 123 -1.2130152e-01 8.20e-02 2.28e+01  -6.0 7.09e+02    -  3.73e-02 7.93e-02h  2
 124 -1.2358134e-01 9.01e-02 2.26e+01  -6.0 1.66e+03    -  2.93e-02 1.30e-02h  3
 125 -1.2453023e-01 9.15e-02 2.25e+01  -6.0 1.10e+04    -  3.75e-03 7.83e-04h  4
 126 -1.3107641e-01 1.68e-01 2.26e+01  -6.0 4.91e+04    -  1.97e-04 1.20e-03h  1
 127 -1.3669638e-01 1.79e-01 2.61e+01  -6.0 1.96e+02    -  8.93e-02 1.75e-01h  1
 128 -1.3782334e-01 1.50e-01 4.64e+02  -6.0 4.47e+02    -  1.75e-01 1.16e-01f  1
 129 -1.3887226e-01 1.44e-01 1.39e+04  -6.0 2.06e+02    -  1.41e-04 5.12e-02h  1
iter    objective    inf_pr   inf_du lg(mu)  ||d||  lg(rg) alpha_du alpha_pr  ls
 130 -1.4369173e-01 2.99e-01 1.10e+04  -6.0 2.12e+02    -  4.15e-01 2.19e-01f  1
 131 -1.5029399e-01 6.46e-01 8.28e+03  -6.0 2.75e+02    -  1.83e-01 2.58e-01h  1
 132 -1.5966471e-01 1.30e+00 4.85e+03  -6.0 2.93e+02    -  6.05e-01 4.17e-01h  1
 133 -1.7419503e-01 6.07e+00 2.07e+03  -6.0 1.07e+03    -  4.20e-01 5.77e-01h  1
 134 -1.7449866e-01 6.02e+00 2.06e+03  -6.0 2.94e+03    -  1.04e-01 9.56e-03h  1
 135 -1.7860287e-01 6.02e+00 1.72e+03  -6.0 1.73e+03    -  2.21e-01 1.65e-01h  1
 136 -1.7852285e-01 5.68e+00 1.62e+03  -6.0 1.58e+00  -3.2 5.08e-02 5.67e-02h  1
 137 -1.7815342e-01 4.18e+00 1.19e+03  -6.0 1.61e+00  -3.6 2.32e-01 2.64e-01h  1
 138 -1.7743768e-01 1.12e+00 3.19e+02  -6.0 1.54e+00  -4.1 5.34e-01 7.32e-01h  1
 139 -1.7724092e-01 3.60e-03 1.30e+00  -6.0 6.19e-01  -4.6 9.83e-01 1.00e+00h  1
iter    objective    inf_pr   inf_du lg(mu)  ||d||  lg(rg) alpha_du alpha_pr  ls
 140 -1.7741104e-01 2.78e-03 1.75e-01  -6.0 1.99e+00  -5.1 1.00e+00 1.00e+00h  1
 141 -1.7769983e-01 2.15e-02 1.62e-01  -6.0 5.83e+00  -5.6 1.00e+00 1.00e+00h  1
 142 -1.7836315e-01 8.40e-02 1.05e+00  -6.0 1.58e+01  -6.0 1.00e+00 1.00e+00h  1
 143 -1.7980379e-01 1.46e-01 2.43e+00  -6.0 3.82e+01  -6.5 1.00e+00 1.00e+00h  1
 144 -1.8277123e-01 2.85e-01 4.91e+00  -6.0 7.76e+01  -7.0 1.00e+00 1.00e+00h  1
 145 -1.8352037e-01 7.16e-02 6.35e-01  -6.0 2.72e+01  -6.6 1.00e+00 1.00e+00h  1
 146 -1.8449027e-01 4.36e-02 3.27e+00  -6.0 8.42e+01  -7.0 9.14e-01 3.99e-01h  1
 147 -1.8561717e-01 8.76e-02 6.14e+00  -6.0 3.09e+02  -7.5 2.16e-01 1.55e-01h  1
 148 -1.8786757e-01 2.30e-01 4.16e+00  -6.0 9.36e+01  -7.1 2.39e-01 8.99e-01h  1
 149 -1.9048911e-01 5.50e-01 1.78e+01  -6.0 4.87e+02  -7.6 9.83e-01 2.66e-01f  1
iter    objective    inf_pr   inf_du lg(mu)  ||d||  lg(rg) alpha_du alpha_pr  ls
 150 -1.9074549e-01 5.07e-01 1.19e+01  -6.0 1.41e+02  -7.1 2.98e-01 7.82e-02h  1
 151 -1.9545479e-01 1.04e+01 1.01e+01  -6.0 8.67e+02  -7.6 1.24e-01 2.80e-01f  1
 152 -1.9549569e-01 9.69e+00 1.57e+01  -6.0 1.45e+01  -5.4 8.00e-01 6.76e-02h  1
 153 -1.9625872e-01 2.76e+00 1.08e+01  -6.0 1.37e+01  -5.9 3.95e-01 7.27e-01h  1
 154 -1.9741991e-01 2.73e-01 1.56e+01  -6.0 3.53e+01  -6.3 2.23e-02 9.40e-01f  1
 155 -1.9863248e-01 7.74e+00 8.92e+00  -6.0 2.26e+01  -5.9 4.39e-01 6.97e-01f  1
 156 -2.0027208e-01 1.55e+01 1.64e+01  -6.0 1.16e+02  -6.4 1.95e-01 2.02e-01h  1
 157 -2.0044527e-01 1.30e+01 2.09e+01  -6.0 7.76e+01  -6.9 7.90e-01 1.73e-01h  1
 158 -2.0303351e-01 3.54e+00 5.01e+00  -6.0 2.07e+02  -7.3 1.00e+00 7.20e-01h  1
 159 -2.0585994e-01 2.50e+00 1.72e+01  -6.0 5.10e+02  -7.8 1.00e+00 3.04e-01h  1
iter    objective    inf_pr   inf_du lg(mu)  ||d||  lg(rg) alpha_du alpha_pr  ls
 160 -2.0882334e-01 2.26e+00 3.71e+01  -6.0 2.00e+03  -8.3 9.80e-01 1.14e-01h  1
 161 -2.0972273e-01 2.04e+00 1.35e+01  -6.0 4.80e+02  -7.9 1.00e+00 9.68e-02h  1
 162 -2.1117262e-01 1.91e+00 3.10e+01  -6.0 8.38e+02  -8.3 5.82e-01 1.13e-01h  1
 163 -2.1260312e-01 1.44e+00 1.16e+01  -6.0 3.26e+02  -7.9 1.00e+00 2.71e-01h  1
 164 -2.1655152e-01 2.23e+00 7.66e+00  -6.0 7.35e+02  -8.4 4.55e-01 4.41e-01h  1
 165 -2.1910203e-01 1.59e+00 1.07e+01  -6.0 4.48e+02  -8.0 7.30e-01 4.78e-01h  1
 166 -2.2056377e-01 1.98e+00 3.33e+01  -6.0 1.71e+03  -8.4 2.66e-01 9.83e-02h  1
 167 -2.2387050e-01 2.76e+00 1.05e+01  -6.0 9.69e+02  -8.0 1.19e-02 3.52e-01h  1
 168 -2.2436642e-01 2.73e+00 9.59e+00  -6.0 1.49e+03  -8.5 3.36e-02 5.75e-02h  1
 169 -2.2457218e-01 2.68e+00 1.30e+01  -6.0 5.92e+02  -8.1 3.99e-04 1.78e-02f  1
iter    objective    inf_pr   inf_du lg(mu)  ||d||  lg(rg) alpha_du alpha_pr  ls
 170 -2.2710147e-01 2.91e+00 1.79e+01  -6.0 5.67e+02  -8.6 1.93e-01 2.23e-01h  1
 171 -2.2880630e-01 5.32e+00 3.32e+01  -6.0 6.54e+03  -9.0 1.60e-01 7.60e-02h  1
 172 -2.3005189e-01 9.20e+00 2.70e+01  -6.0 1.96e+03  -8.6 1.69e-01 2.74e-01h  1
 173 -2.3148749e-01 8.47e+00 6.08e+01  -6.0 1.45e+04  -9.1 1.01e-01 8.27e-02h  1
 174 -2.3341237e-01 1.53e+01 8.39e+01  -6.0 1.53e+03  -8.7 6.82e-02 1.68e-01h  1
 175 -2.3510294e-01 1.51e+01 2.32e+02  -6.0 1.39e+03  -9.1 4.23e-01 1.73e-01h  1
 176 -2.3636454e-01 1.57e+01 1.40e+02  -6.0 5.31e+02  -8.7 1.24e-01 2.19e-01h  1
 177 -2.3703983e-01 1.59e+01 1.11e+03  -6.0 2.79e+03  -9.2 2.07e-01 4.17e-02h  1
 178 -2.3727503e-01 1.52e+01 1.06e+03  -6.0 5.97e+02  -8.8 4.48e-02 4.56e-02h  1
 179 -2.3768771e-01 1.48e+01 1.03e+03  -6.0 1.02e+04  -9.2 1.14e-01 3.29e-02h  1
iter    objective    inf_pr   inf_du lg(mu)  ||d||  lg(rg) alpha_du alpha_pr  ls
 180 -2.3784704e-01 1.45e+01 1.01e+03  -6.0 1.12e+03  -8.8 2.97e-02 2.24e-02h  1
 181 -2.3811937e-01 1.38e+01 1.01e+03  -6.0 5.95e+02  -8.4 1.67e-02 7.37e-02h  1
 182 -2.3844345e-01 1.26e+01 6.04e+02  -6.0 4.44e+02  -8.9 3.37e-01 8.43e-02h  1
 183 -2.3848174e-01 9.91e+00 3.77e+04  -6.0 6.07e+01  -5.7 9.28e-03 2.13e-01h  1
 184 -2.3881280e-01 1.63e+00 5.90e+03  -6.0 1.54e+01  -6.2 3.72e-01 8.43e-01h  1
 185 -2.3896268e-01 3.95e-02 2.50e+01  -6.0 1.11e+01  -6.7 7.47e-01 1.00e+00h  1
 186 -2.3916102e-01 2.22e-02 4.95e+00  -6.0 2.41e+01  -7.2 1.00e+00 8.98e-01h  1
 187 -2.3958226e-01 1.58e-01 1.80e+00  -6.0 5.46e+01  -7.6 1.00e+00 1.00e+00h  1
 188 -2.4033476e-01 7.21e-01 3.17e+00  -6.0 1.36e+02  -8.1 1.00e+00 7.04e-01h  1
 189 -2.4081950e-01 5.65e-01 6.11e+01  -6.0 3.49e+02  -8.6 7.88e-01 2.32e-01h  1
iter    objective    inf_pr   inf_du lg(mu)  ||d||  lg(rg) alpha_du alpha_pr  ls
 190 -2.4137980e-01 5.78e-01 2.85e+03  -6.0 7.37e+02  -9.1 3.81e-01 1.30e-01h  1
 191 -2.4352886e-01 9.51e-01 2.47e+03  -6.0 1.61e+03  -9.5 3.38e-01 2.95e-01h  1
 192 -2.4374919e-01 9.75e-01 2.38e+03  -6.0 4.92e+04 -10.0 7.37e-03 9.47e-03h  1
 193 -2.4445015e-01 1.01e+00 2.16e+03  -6.0 1.79e+03  -9.6 1.32e-01 1.28e-01h  1
 194 -2.4453657e-01 9.87e-01 2.07e+03  -6.0 1.80e+03  -9.2 1.74e-02 1.97e-02h  1
 195 -2.4595444e-01 1.90e+00 6.36e+03  -6.0 1.73e+03  -9.6 4.20e-01 2.53e-01h  1
 196 -2.4632368e-01 1.48e+00 1.71e+04  -6.0 8.78e+02  -9.2 7.52e-01 1.07e-01h  1
 197 -2.4684994e-01 1.65e+00 1.28e+06  -6.0 1.78e+03  -9.7 2.58e-03 9.04e-02h  1
 198 -2.4707827e-01 1.57e+00 1.17e+06  -6.0 1.06e+03  -9.3 4.16e-03 8.61e-02h  1
 199 -2.4707032e-01 8.81e-02 1.27e+02  -6.0 7.00e+01  -7.0 5.25e-04 1.00e+00h  1
iter    objective    inf_pr   inf_du lg(mu)  ||d||  lg(rg) alpha_du alpha_pr  ls
 200 -2.4706244e-01 2.16e-02 1.89e+01  -6.0 1.38e+00  -4.8 5.20e-01 7.55e-01h  1
 201 -2.4706234e-01 1.82e-02 4.23e+01  -6.0 8.27e-01  -5.3 9.94e-01 1.55e-01h  1
 202 -2.4706109e-01 1.40e-03 3.24e+00  -6.0 9.86e-01  -5.8 1.00e+00 9.23e-01f  1
 203 -2.4706256e-01 2.34e-04 1.44e-01  -6.0 2.30e+00  -6.2 1.00e+00 1.00e+00f  1
 204 -2.4706926e-01 3.53e-03 9.78e-03  -6.0 1.00e+01  -6.7 1.00e+00 1.00e+00h  1
 205 -2.4708670e-01 1.27e-03 5.55e-02  -6.0 8.32e+00  -7.2 1.00e+00 1.00e+00h  1
 206 -2.4716728e-01 1.00e-02 1.24e-01  -6.0 2.43e+01  -7.7 1.00e+00 9.61e-01h  1
 207 -2.4738202e-01 6.63e-02 2.05e-01  -6.0 6.69e+01  -8.1 1.00e+00 1.00e+00h  1
 208 -2.4787185e-01 3.06e-01 9.34e-01  -6.0 1.79e+02  -8.6 1.00e+00 1.00e+00h  1
 209 -2.4880052e-01 3.16e+00 5.77e+00  -6.0 4.13e+02  -9.1 9.60e-01 1.00e+00h  1
iter    objective    inf_pr   inf_du lg(mu)  ||d||  lg(rg) alpha_du alpha_pr  ls
 210 -2.4998673e-01 2.07e+01 3.71e+01  -6.0 3.51e+03  -9.6 3.05e-02 2.74e-01h  1
 211 -2.5262607e-01 3.03e+01 6.22e+01  -6.0 1.19e+03  -9.1 3.82e-01 1.00e+00h  1
 212 -2.5312657e-01 3.04e+01 6.27e+01  -6.0 8.63e+03  -9.6 2.53e-02 2.13e-02h  1
 213 -2.5445295e-01 2.27e+01 4.95e+01  -6.0 1.09e+03  -9.2 2.38e-01 3.40e-01h  1
 214 -2.5559474e-01 2.43e+01 8.98e+01  -6.0 4.34e+03  -9.7 1.14e-02 9.13e-02h  1
 215 -2.5575666e-01 2.43e+01 7.30e+01  -6.0 1.02e+04 -10.2 2.99e-02 6.38e-03h  1
 216 -2.5585679e-01 2.43e+01 4.82e+02  -6.0 2.59e+04 -10.6 1.86e-02 2.44e-03h  1
 217 -2.5736225e-01 1.19e+01 1.81e+02  -6.0 2.17e+03 -10.2 4.00e-01 5.10e-01h  1
 218 -2.5781818e-01 6.28e+00 4.54e+02  -6.0 6.31e+02  -8.9 1.34e-02 4.73e-01h  1
 219 -2.5793310e-01 4.68e+00 2.20e+01  -6.0 6.12e+02  -9.4 2.05e-01 2.56e-01h  1
iter    objective    inf_pr   inf_du lg(mu)  ||d||  lg(rg) alpha_du alpha_pr  ls
 220 -2.5795198e-01 3.66e+00 9.77e+02  -6.0 4.70e+02  -9.8 9.67e-02 2.17e-01h  1
 221 -2.5795210e-01 3.08e+00 8.02e+02  -6.0 1.48e+02  -8.5 1.04e-01 1.59e-01h  1
 222 -2.5793176e-01 1.37e+00 3.91e+02  -6.0 8.11e+01  -9.0 8.39e-01 5.54e-01h  1
 223 -2.5792595e-01 1.07e+00 3.04e+02  -6.0 2.00e+02  -9.5 2.35e-01 2.19e-01h  1
 224 -2.5791689e-01 5.02e-01 9.96e+01  -6.0 5.92e+02  -9.9 6.20e-01 6.83e-01h  1
 225 -2.5790910e-01 1.62e-01 1.58e-01  -6.0 2.21e+02  -9.5 1.00e+00 1.00e+00h  1
 226 -2.5793567e-01 6.55e-01 2.29e+00  -6.0 7.45e+02 -10.0 1.00e+00 8.07e-01h  1
 227 -2.5796806e-01 4.25e-01 6.29e-01  -6.0 3.92e+02  -9.6 1.00e+00 1.00e+00h  1
 228 -2.5799481e-01 1.29e-01 1.95e-01  -6.0 1.86e+02  -9.1 1.00e+00 1.00e+00h  1
 229 -2.5813103e-01 2.87e+00 7.87e+00  -6.0 1.21e+03  -9.6 1.00e+00 1.00e+00h  1
iter    objective    inf_pr   inf_du lg(mu)  ||d||  lg(rg) alpha_du alpha_pr  ls
 230 -2.5841719e-01 3.56e+00 1.16e+01  -6.0 8.59e+02  -9.2 8.39e-01 1.00e+00h  1
 231 -2.5917548e-01 1.43e+01 2.64e+01  -6.0 6.79e+02  -8.8 4.04e-01 8.97e-01h  1
 232 -2.5886556e-01 5.50e+00 9.11e+01  -6.0 6.30e+02  -9.2 3.26e-01 1.00e+00H  1
 233 -2.5900802e-01 1.99e+00 1.37e+01  -6.0 3.56e+02  -9.7 7.80e-01 9.81e-01h  1
 234 -2.5928760e-01 2.72e+00 1.06e+01  -6.0 2.05e+03 -10.2 1.98e-01 2.05e-01h  1
 235 -2.5973869e-01 1.11e+01 6.52e+00  -6.0 4.23e+03  -9.8 3.55e-01 2.58e-01h  1
 236 -2.5976224e-01 9.38e+00 5.57e+00  -6.0 4.92e+02 -10.2 2.53e-01 1.60e-01h  1
 237 -2.5985255e-01 2.36e+01 1.23e+01  -6.0 1.36e+03 -10.7 6.13e-01 1.00e+00h  1
 238 -2.5977785e-01 1.07e+00 2.62e+01  -6.0 2.42e+02  -8.5 8.13e-02 1.00e+00h  1
 239 -2.5980928e-01 2.54e-02 1.58e-01  -6.0 2.82e+01  -9.0 1.00e+00 1.00e+00h  1
iter    objective    inf_pr   inf_du lg(mu)  ||d||  lg(rg) alpha_du alpha_pr  ls
 240 -2.5980750e-01 4.44e-01 5.92e-01  -6.0 1.57e+02  -9.4 1.00e+00 1.00e+00h  1
 241 -2.5982065e-01 7.78e-01 1.25e-01  -6.0 1.94e+02  -9.9 1.00e+00 1.00e+00h  1
 242 -2.5981712e-01 5.12e-01 1.60e-01  -6.0 4.74e+02 -10.4 1.00e+00 1.00e+00H  1
 243 -2.5981640e-01 5.23e-01 2.74e+01  -6.0 1.38e+03 -10.9 1.00e+00 5.59e-02h  2
 244 -2.5979724e-01 3.39e+01 4.80e+01  -6.0 6.15e+03 -11.3 6.60e-01 3.55e-01H  1
 245 -2.5979560e-01 2.33e+01 1.69e+01  -6.0 9.39e+02    -  4.87e-01 3.21e-01h  1
 246 -2.5979222e-01 1.66e+01 5.26e+01  -6.0 1.02e+03    -  1.00e+00 2.89e-01h  1
 247 -2.5979150e-01 1.46e+01 5.18e+01  -6.0 4.93e+02    -  4.18e-02 1.22e-01h  1
 248 -2.5978664e-01 3.34e-02 5.13e+01  -6.0 1.76e+02    -  1.49e-01 1.00e+00h  1
 249 -2.5978561e-01 5.68e-04 2.12e-03  -6.0 7.00e+00    -  1.00e+00 1.00e+00h  1
iter    objective    inf_pr   inf_du lg(mu)  ||d||  lg(rg) alpha_du alpha_pr  ls
 250 -2.5978562e-01 2.67e-05 2.83e-06  -6.0 1.52e+00    -  1.00e+00 1.00e+00h  1
 251 -2.5978562e-01 2.83e-10 2.31e-11  -6.0 3.23e-03    -  1.00e+00 1.00e+00h  1
 252 -2.6041237e-01 2.86e+00 4.02e+01  -7.5 2.87e+03    -  4.38e-01 2.97e-01f  1
 253 -2.6061373e-01 3.14e+00 2.10e+01  -7.5 2.89e+03    -  1.13e-01 1.86e-01h  1
 254 -2.6072616e-01 2.99e+00 6.21e+01  -7.5 2.45e+03    -  4.45e-01 1.35e-01h  1
 255 -2.6089637e-01 3.33e+00 4.51e+01  -7.5 2.44e+03    -  1.48e-01 2.36e-01h  1
 256 -2.6091340e-01 3.21e+00 1.98e+02  -7.5 3.16e+02 -10.0 8.92e-01 3.85e-02h  1
 257 -2.6121222e-01 2.00e+00 3.03e+01  -7.5 6.90e+02 -10.5 9.69e-02 7.15e-01h  1
 258 -2.6127297e-01 1.78e+00 2.34e+01  -7.5 2.05e+03    -  6.86e-02 1.38e-01h  1
 259 -2.6128137e-01 1.62e+00 5.36e+01  -7.5 8.90e+02 -11.0 1.00e+00 9.13e-02h  1
iter    objective    inf_pr   inf_du lg(mu)  ||d||  lg(rg) alpha_du alpha_pr  ls
 260 -2.6132393e-01 1.11e+00 2.62e+01  -7.5 1.24e+03 -11.4 1.00e+00 5.00e-01h  1
 261 -2.6134627e-01 5.36e+00 1.04e+01  -7.5 1.11e+03 -11.9 5.66e-01 6.04e-01h  1
 262 -2.6135064e-01 6.31e+00 3.17e+00  -7.5 6.58e+02    -  6.49e-02 1.00e+00h  1
 263 -2.6134910e-01 5.09e+00 1.32e+00  -7.5 1.71e+02    -  1.00e+00 1.97e-01h  1
 264 -2.6134167e-01 7.07e-01 1.14e-01  -7.5 1.03e+02    -  1.00e+00 1.00e+00h  1
 265 -2.6134241e-01 6.26e-01 1.65e-01  -7.5 2.05e+02    -  1.00e+00 1.65e-01h  1
 266 -2.6134725e-01 1.98e+00 1.08e-02  -7.5 2.58e+02    -  1.00e+00 1.00e+00h  1
 267 -2.6134773e-01 2.28e+00 1.09e-01  -7.5 4.08e+03 -11.5 1.54e-02 7.65e-02h  4
 268 -2.6135088e-01 3.95e+00 2.64e-01  -7.5 7.87e+02 -11.1 2.99e-01 5.60e-01h  1
 269 -2.6134762e-01 4.63e-01 4.21e-03  -7.5 1.58e+02 -11.6 1.00e+00 1.00e+00h  1
iter    objective    inf_pr   inf_du lg(mu)  ||d||  lg(rg) alpha_du alpha_pr  ls
 270 -2.6134712e-01 3.18e-02 1.17e-03  -7.5 2.59e+02 -12.0 1.00e+00 1.00e+00H  1
 271 -2.6134743e-01 3.81e+00 1.78e-01  -7.5 1.40e+03 -12.5 8.40e-01 1.00e+00H  1
 272 -2.6134777e-01 5.61e-01 2.09e-02  -7.5 7.87e+02 -12.1 1.00e+00 1.00e+00H  1
 273 -2.6134805e-01 5.58e+00 6.43e-01  -7.5 3.34e+03 -12.6 5.52e-01 1.84e-01h  3
 274 -2.6134821e-01 6.57e+00 1.25e+00  -7.5 9.59e+03 -13.0 2.31e-01 3.00e-02h  4
 275 -2.6134829e-01 6.63e+00 2.64e+00  -7.5 4.10e+03    -  1.00e+00 3.48e-02h  5
 276 -2.6134889e-01 1.20e+01 3.45e-01  -7.5 9.15e+02    -  8.06e-01 1.00e+00h  1
 277 -2.6134963e-01 1.24e+01 7.11e-01  -7.5 9.09e+02 -11.7 1.18e-01 1.00e+00h  1
 278 -2.6134980e-01 3.38e-01 3.04e-03  -7.5 1.36e+02 -11.3 1.00e+00 1.00e+00h  1
 279 -2.6135046e-01 9.32e+00 3.18e-01  -7.5 1.54e+03    -  8.17e-01 5.00e-01h  2
iter    objective    inf_pr   inf_du lg(mu)  ||d||  lg(rg) alpha_du alpha_pr  ls
 280 -2.6135092e-01 3.78e+00 1.32e-02  -7.5 4.78e+02    -  1.00e+00 1.00e+00h  1
 281 -2.6135091e-01 2.39e-03 1.26e-04  -7.5 1.59e+01    -  1.00e+00 1.00e+00h  1
 282 -2.6135091e-01 3.50e-06 1.17e-07  -7.5 4.61e-01    -  1.00e+00 1.00e+00h  1
 283 -2.6135091e-01 2.88e-10 4.56e-13  -7.5 9.09e-05    -  1.00e+00 1.00e+00h  1
 284 -2.6135294e-01 2.99e+00 4.31e+00  -9.0 2.03e+03    -  4.68e-01 2.11e-01h  1
 285 -2.6135586e-01 5.86e+01 1.28e+00  -9.0 4.13e+03    -  3.30e-01 4.52e-01h  1
 286 -2.6135697e-01 4.01e+01 3.40e+00  -9.0 1.52e+03    -  1.83e-01 5.33e-01h  1
 287 -2.6135754e-01 7.34e+00 1.96e+01  -9.0 3.49e+02    -  6.66e-02 8.71e-01h  1
 288 -2.6135761e-01 9.24e-02 3.83e-01  -9.0 6.20e+01 -10.9 9.16e-01 1.00e+00h  1
 289 -2.6135900e-01 5.20e+01 3.56e-01  -9.0 5.30e+03    -  8.24e-02 3.12e-01h  1
Error in an AMPL evaluation. Run with "halt_on_ampl_error yes" to see details.
Warning: Cutting back alpha due to evaluation error
iter    objective    inf_pr   inf_du lg(mu)  ||d||  lg(rg) alpha_du alpha_pr  ls
 290 -2.6135864e-01 4.84e+01 5.47e+01  -9.0 2.53e+03 -11.3 1.13e-01 3.08e-01h  2
 291 -2.6135890e-01 4.78e+01 3.62e+01  -9.0 4.60e+03 -11.8 2.01e-01 9.91e-02h  2
 292 -2.6135922e-01 4.53e+01 1.10e+01  -9.0 2.08e+03 -12.3 5.86e-01 4.54e-01h  1
 293 -2.6135937e-01 4.62e+00 5.39e+03  -9.0 6.29e+02 -12.8 1.75e-02 1.00e+00h  1
 294 -2.6135958e-01 2.59e+01 5.25e+03  -9.0 5.63e+04    -  3.00e-03 2.58e-02h  2
 295 -2.6135964e-01 2.64e+01 5.13e+03  -9.0 1.30e+04 -13.2 1.55e-01 2.26e-02h  4
 296 -2.6136058e-01 2.27e+01 3.85e+01  -9.0 1.34e+03 -12.8 1.47e-01 1.00e+00h  1
 297 -2.6136149e-01 1.32e+01 5.44e-03  -9.0 7.62e+02 -12.4 1.00e+00 1.00e+00h  1
 298 -2.6136160e-01 1.25e+01 4.09e+00  -9.0 1.33e+03 -12.0 6.68e-01 7.64e-02h  1
 299 -2.6136195e-01 7.40e+00 4.41e+00  -9.0 7.57e+02 -12.4 8.05e-01 1.00e+00h  1
iter    objective    inf_pr   inf_du lg(mu)  ||d||  lg(rg) alpha_du alpha_pr  ls
 300 -2.6136299e-01 8.61e+01 2.31e+00  -9.0 5.29e+03 -12.9 4.28e-01 4.75e-01h  1
 301 -2.6136298e-01 8.30e+01 2.23e+00  -9.0 1.16e+03    -  1.52e-01 3.61e-02h  1
 302 -2.6136375e-01 5.46e+01 2.02e+00  -9.0 2.84e+03    -  1.99e-02 9.06e-01H  1
 303 -2.6136307e-01 5.20e+01 3.93e-01  -9.0 5.10e+03    -  9.39e-01 8.02e-01H  1
 304 -2.6136375e-01 5.32e+01 7.90e-02  -9.0 1.89e+03    -  2.12e-03 1.00e+00h  1
 305 -2.6136387e-01 1.17e+00 6.68e-02  -9.0 2.22e+02 -11.6 2.63e-01 1.00e+00h  1
 306 -2.6136393e-01 1.33e-01 1.09e-04  -9.0 8.91e+01 -11.2 1.00e+00 1.00e+00h  1
 307 -2.6136407e-01 6.67e-01 1.32e-04  -9.0 2.14e+02 -11.6 1.00e+00 1.00e+00h  1
 308 -2.6136460e-01 9.14e+00 1.19e-02  -9.0 7.88e+02 -12.1 1.26e-01 1.00e+00h  1
 309 -2.6136604e-01 6.60e+01 1.63e-02  -9.0 3.11e+03 -12.6 5.03e-01 6.54e-01h  1
iter    objective    inf_pr   inf_du lg(mu)  ||d||  lg(rg) alpha_du alpha_pr  ls
 310 -2.6136605e-01 6.60e+01 1.01e-01  -9.0 1.10e+05    -  1.57e-02 2.42e-04h  7
 311 -2.6136609e-01 6.58e+01 4.04e-01  -9.0 3.21e+04    -  8.73e-02 3.31e-03h  5
 312 -2.6136630e-01 6.26e+01 1.92e+00  -9.0 8.52e+03    -  6.55e-01 5.00e-02h  3
 313 -2.6136770e-01 5.45e+01 7.81e-01  -9.0 2.67e+03    -  7.56e-01 6.42e-01h  1
 314 -2.6136925e-01 5.26e+01 5.14e+01  -9.0 1.69e+03    -  1.12e-03 1.00e+00h  1
 315 -2.6136946e-01 4.19e+01 3.67e+01  -9.0 1.60e+03    -  1.93e-02 2.85e-01h  1
 316 -2.6137021e-01 4.39e+01 6.71e+01  -9.0 1.46e+03    -  2.73e-02 1.00e+00f  1
 317 -2.6137035e-01 4.25e+01 6.23e+01  -9.0 3.94e+03    -  2.49e-01 7.20e-02h  1
 318 -2.6137114e-01 4.10e+01 1.54e+01  -9.0 2.23e+03    -  1.43e-01 7.52e-01H  1
 319 -2.6137126e-01 3.37e+01 1.25e+01  -9.0 3.12e+03 -13.1 9.18e-02 1.87e-01h  1
iter    objective    inf_pr   inf_du lg(mu)  ||d||  lg(rg) alpha_du alpha_pr  ls
 320 -2.6137134e-01 3.43e+01 9.62e+00  -9.0 2.60e+03    -  4.69e-02 2.31e-01h  1
 321 -2.6137144e-01 2.96e+01 7.90e+00  -9.0 1.35e+03    -  6.76e-02 1.79e-01h  1
 322 -2.6137137e-01 2.30e+01 2.63e+01  -9.0 9.33e+02    -  2.44e-03 2.75e-01h  1
 323 -2.6137133e-01 4.53e-02 8.97e-01  -9.0 5.68e+01    -  6.04e-01 1.00e+00h  1
 324 -2.6137136e-01 2.95e-01 5.47e-01  -9.0 1.07e+03    -  1.00e+00 9.69e-02h  2
 325 -2.6137137e-01 2.59e-01 3.59e-01  -9.0 1.52e+02    -  1.00e+00 3.39e-01h  2
 326 -2.6137138e-01 4.41e-02 2.20e-05  -9.0 4.27e+01    -  1.00e+00 1.00e+00h  1
 327 -2.6137138e-01 1.07e-04 1.05e-08  -9.0 2.15e+00    -  1.00e+00 1.00e+00h  1
 328 -2.6137138e-01 2.22e-09 3.02e-13  -9.0 9.49e-03    -  1.00e+00 1.00e+00h  1

Number of Iterations....: 328

                                   (scaled)                 (unscaled)
Objective...............:  -2.6137138197697340e-01   -2.6137138197697340e-01
Dual infeasibility......:   3.0184297563958182e-13    3.0184297563958182e-13
Constraint violation....:   1.1894504893261497e-09    2.2191670723259449e-09
Complementarity.........:   9.0909091327894770e-10    9.0909091327894770e-10
Overall NLP error.......:   1.1894504893261497e-09    2.2191670723259449e-09


Number of objective function evaluations             = 854
Number of objective gradient evaluations             = 329
Number of equality constraint evaluations            = 855
Number of inequality constraint evaluations          = 855
Number of equality constraint Jacobian evaluations   = 330
Number of inequality constraint Jacobian evaluations = 330
Number of Lagrangian Hessian evaluations             = 328
Total CPU secs in IPOPT (w/o function evaluations)   =    816.430
Total CPU secs in NLP function evaluations           =     14.452

EXIT: Optimal Solution Found.
